NAME: Tnm115
COMMENT: Recalculated optimal tour for Tnm115, using concorde got a tour of length 1641752.0
TYPE: TOUR
DIMENSION: 115
TOUR_SECTION:
1
90
87
84
81
78
75
72
69
66
63
60
57
54
51
48
45
42
39
36
33
30
27
24
21
18
15
12
9
6
3
89
86
91
83
80
77
74
94
97
100
103
106
71
68
65
62
59
56
53
50
47
44
41
38
35
32
29
26
23
20
17
14
99
96
11
8
5
93
2
88
85
82
79
76
73
70
67
64
61
58
55
52
49
46
43
40
37
102
105
108
111
114
115
112
109
113
110
107
104
101
98
34
31
28
25
22
19
16
13
10
7
95
92
4 
-1
EOF
